StudentsNr = 10;
InstructorsNr = 35;
DaysNr = 1;
SlotsPerDay = 40;
AvailabilitySlotsLenght = 40;
RoomNr = 1;
ProgrammNr = 2;
DegreeNr = 2;
RolesNr = 0;
CoursesNr = 8;
InstructorsProgramm = [{1}, {2}, {1}, {1}, {1}, {2}, {1, 2}, {2}, {1}, {1}, {2}, {2}, {1}, {1}, {1}, {2}, {1, 2}, {2}, {1}, {1}, {1}, {1}, {1}, {1}, {2}, {2}, {1, 2}, {1}, {1}, {1}, {2}, {1}, {1}, {1}, {2}];
InstructorRolesPerProgramm = array2d(1..ProgrammNr,{},[]);
InstructorsAvailability = [|0, |1, |0, |0, |0, |0, |0, |1, |1, |0, |0, |1, |1, |1, |0, |0, |1, |0, |0, |1, |1, |0, |1, |0, |1, |1, |0, |1, |1, |0, |1, |0, |1, |1, |1|];
StudentsProgramm = [1, 2, 1, 2, 1, 2, 2, 2, 1, 2];
StudentsDegree = [2, 2, 1, 2, 2, 2, 1, 2, 1, 2];
StudentsSupervisorId = [10, 31, 32, 12, 19, 8, 16, 2, 19, 25];
StudentsCourseIds = [{2, 3, 5, 6, 7, 8}, {2, 3, 4, 5, 6, 7}, {1, 2, 4}, {1, 3, 4, 5, 6, 8}, {1, 4, 5, 6, 7, 8}, {3, 4, 5, 6, 7, 8}, {3, 6, 7}, {1, 3, 4, 6, 7, 8}, {2, 3, 6}, {1, 2, 3, 4, 6, 7}];
StudentsAvailability = [|0, |0, |1, |0, |0, |1, |0, |1, |0, |1|];
TheoryticalMinCard = [6, 6, 4, 6, 6, 6, 3, 6, 3, 6];
CoursesInstructorIds = [{2, 4, 5, 7, 10, 11, 12, 13, 15, 17, 20, 21, 22, 24, 25, 28, 29, 30, 35}, {2, 4, 6, 8, 11, 12, 14, 15, 16, 17, 23, 27, 28, 29, 33}, {1, 5, 9, 13, 15, 16, 17, 18, 21, 22, 24, 28, 30}, {4, 16, 18, 29, 31}, {4, 5, 6, 9, 10, 11, 12, 13, 14, 16, 17, 18, 19, 20, 25, 26, 27, 28, 29, 30, 31, 32}, {1, 4, 6, 9, 11, 13, 14, 16, 18, 19, 21, 22, 24, 25, 26, 27, 30, 31, 32}, {2, 7, 8, 11, 14, 25, 29, 30, 32, 33, 34}, {3, 20, 27, 31, 32}];
RolesDemands = [];
RolesContinuity = [];
ExamLen = [1, 1, 2, 1, 1, 1, 2, 1, 2, 1];
LunchTsMinLen = 0;
LunchStarts = [14..24];
SupervisorAvailable = 0;
OptimalLunchLenght = [2, 0];
OptimalStartTs = [1, 0];
OptimalFinishTs = [0, 40];
MinimizeRooms = 500;
RolesSoftContinuity = array2d(1..2,{},[]);
SameDegreeInRoom = 10;
Mergeability = 0;
